StudentsNr = 10;
InstructorsNr = 3;
DaysNr = 2;
SlotsPerDay = 20;
AvailabilitySlotsLenght = 10;
RoomNr = 1;
ProgrammNr = 2;
DegreeNr = 3;
RolesNr = 4;
CoursesNr = 5;
InstructorsProgramm = [{1}, {1, 2}, {2}];
InstructorRolesPerProgramm = [|{}, {1}, {}, {}|{3}, {}, {}, {}|];
InstructorsAvailability = [|0, 0, 0, 1, |1, 0, 1, 1, |0, 1, 1, 1|];
StudentsProgramm = [1, 2, 2, 1, 1, 2, 2, 1, 2, 1];
StudentsDegree = [2, 1, 2, 3, 1, 1, 3, 2, 1, 2];
StudentsSupervisorId = [1, 3, 2, 2, 2, 3, 3, 1, 3, 2];
StudentsCourseIds = [{2, 3, 4, 5}, {1}, {1, 2, 3, 4}, {4}, {1}, {4}, {4}, {1, 2, 3, 5}, {5}, {1, 2, 4, 5}];
StudentsAvailability = [|1, 0, 1, 1, |0, 1, 1, 0, |0, 1, 1, 1, |1, 1, 1, 1, |0, 1, 1, 1, |1, 1, 1, 1, |1, 1, 1, 0, |0, 1, 1, 1, |1, 1, 0, 1, |1, 1, 1, 1|];
TheoryticalMinCard = [1, 1, 3, 1, 1, 1, 1, 1, 0, 2];
CoursesInstructorIds = [{1}, {1}, {1, 2, 3}, {1}, {3}];
RolesDemands = [1, 1, 1, 1];
RolesContinuity = [2, 1, 3];
ExamLen = [2, 2, 2, 2, 2, 2, 2, 2, 2, 2];
LunchTsMinLen = 0;
LunchStarts = [8..12, 30..31];
SupervisorAvailable = 5;
OptimalLunchLenght = [2, 0];
OptimalStartTs = [2, 1];
OptimalFinishTs = [0, 20];
MinimizeRooms = 400;
RolesSoftContinuity = [|1, 2, 3, 4|0, 0, 0, 2|];
SameDegreeInRoom = 20;
Mergeability = 1;
